Distance All: 487.867
Capacity Violation: 0
Time Violation: 0
Route Used Num: 4
Visited Customer Num: 25

Route 0 : 
Total Distance: 0	Total Demand: 0	Time Violation: 0	Customer Number: 0	Nodes: 0 0 
Route 1 : 
Total Distance: 0	Total Demand: 0	Time Violation: 0	Customer Number: 0	Nodes: 0 0 
Route 2 : 
Total Distance: 0	Total Demand: 0	Time Violation: 0	Customer Number: 0	Nodes: 0 0 
Route 3 : 
Total Distance: 0	Total Demand: 0	Time Violation: 0	Customer Number: 0	Nodes: 0 0 
Route 4 : 
Total Distance: 77.8558	Total Demand: 48	Time Violation: 0	Customer Number: 3	Nodes: 0 12 9 3 0 
Route 5 : 
Total Distance: 163.569	Total Demand: 93	Time Violation: 0	Customer Number: 9	Nodes: 0 11 19 7 8 18 6 10 20 1 0 
Route 6 : 
Total Distance: 0	Total Demand: 0	Time Violation: 0	Customer Number: 0	Nodes: 0 0 
Route 7 : 
Total Distance: 146.791	Total Demand: 101	Time Violation: 0	Customer Number: 8	Nodes: 0 21 2 15 23 22 4 25 24 0 
Route 8 : 
Total Distance: 0	Total Demand: 0	Time Violation: 0	Customer Number: 0	Nodes: 0 0 
Route 9 : 
Total Distance: 0	Total Demand: 0	Time Violation: 0	Customer Number: 0	Nodes: 0 0 
Route 10 : 
Total Distance: 99.6516	Total Demand: 90	Time Violation: 0	Customer Number: 5	Nodes: 0 5 14 16 17 13 0 
Route 11 : 
Total Distance: 0	Total Demand: 0	Time Violation: 0	Customer Number: 0	Nodes: 0 0 
Route 12 : 
Total Distance: 0	Total Demand: 0	Time Violation: 0	Customer Number: 0	Nodes: 0 0 
Route 13 : 
Total Distance: 0	Total Demand: 0	Time Violation: 0	Customer Number: 0	Nodes: 0 0 
Route 14 : 
Total Distance: 0	Total Demand: 0	Time Violation: 0	Customer Number: 0	Nodes: 0 0 
Route 15 : 
Total Distance: 0	Total Demand: 0	Time Violation: 0	Customer Number: 0	Nodes: 0 0 
Route 16 : 
Total Distance: 0	Total Demand: 0	Time Violation: 0	Customer Number: 0	Nodes: 0 0 
Route 17 : 
Total Distance: 0	Total Demand: 0	Time Violation: 0	Customer Number: 0	Nodes: 0 0 
Route 18 : 
Total Distance: 0	Total Demand: 0	Time Violation: 0	Customer Number: 0	Nodes: 0 0 
Route 19 : 
Total Distance: 0	Total Demand: 0	Time Violation: 0	Customer Number: 0	Nodes: 0 0 
Route 20 : 
Total Distance: 0	Total Demand: 0	Time Violation: 0	Customer Number: 0	Nodes: 0 0 
Route 21 : 
Total Distance: 0	Total Demand: 0	Time Violation: 0	Customer Number: 0	Nodes: 0 0 
Route 22 : 
Total Distance: 0	Total Demand: 0	Time Violation: 0	Customer Number: 0	Nodes: 0 0 
Route 23 : 
Total Distance: 0	Total Demand: 0	Time Violation: 0	Customer Number: 0	Nodes: 0 0 
Route 24 : 
Total Distance: 0	Total Demand: 0	Time Violation: 0	Customer Number: 0	Nodes: 0 0 
================================================================================= 
Execution Time: 12.111 s 
